(set-logic ALL)
(declare-fun var0 () String)
(assert (str.in_re var0 (re.++ (re.* (re.+ (str.to_re "00"))) (re.++ (re.* (re.+ (str.to_re "1"))) (re.++ (re.+ (re.+ (str.to_re "222"))) (re.++ (re.+ (re.* (str.to_re "3"))) (re.++ (re.+ (re.* (str.to_re "4"))) (re.++ (re.union (re.+ (str.to_re "5")) (re.+ (str.to_re "666"))) (re.++ (re.+ (re.* (str.to_re "777"))) (re.++ (re.+ (re.+ (str.to_re "888"))) (re.++ (re.union (re.union (str.to_re "999") (str.to_re "aaa")) (re.union (str.to_re "bbb") (str.to_re "ccc"))) (re.++ (re.+ (re.+ (str.to_re "d"))) (re.++ (re.+ (re.union (str.to_re "e") (str.to_re "ff"))) (re.++ (re.+ (re.union (str.to_re "ggg") (str.to_re "h"))) (re.++ (re.* (re.union (str.to_re "ii") (str.to_re "j"))) (re.++ (re.+ (re.union (str.to_re "kkk") (str.to_re "lll"))) (re.++ (re.* (re.+ (str.to_re "mm"))) (re.++ (re.+ (re.+ (str.to_re "n"))) (re.++ (re.+ (re.* (str.to_re "oo"))) (re.++ (re.union (re.* (str.to_re "p")) (re.* (str.to_re "qqq"))) (re.++ (re.* (re.union (str.to_re "rrr") (str.to_re "ss"))) (re.++ (re.union (re.+ (str.to_re "t")) (re.+ (str.to_re "u"))) (re.++ (re.union (re.* (str.to_re "vvv")) (re.* (str.to_re "www"))) (re.++ (re.union (re.+ (str.to_re "x")) (re.+ (str.to_re "yyy"))) (re.++ (re.* (re.* (str.to_re "zz"))) (re.++ (re.+ (re.+ (str.to_re "AAA"))) (re.++ (re.union (re.* (str.to_re "BBB")) (re.* (str.to_re "CC"))) (re.* (re.union (str.to_re "DDD") (str.to_re "EEE"))))))))))))))))))))))))))))))
(assert (not (str.in_re var0 (re.++ (re.+ (re.+ (str.to_re "0"))) (re.++ (re.union (re.+ (str.to_re "1")) (re.+ (str.to_re "222"))) (re.++ (re.+ (re.union (str.to_re "333") (str.to_re "4"))) (re.++ (re.union (re.* (str.to_re "55")) (re.* (str.to_re "666"))) (re.++ (re.* (re.* (str.to_re "777"))) (re.++ (re.+ (re.+ (str.to_re "8"))) (re.++ (re.+ (re.* (str.to_re "99"))) (re.++ (re.* (re.union (str.to_re "a") (str.to_re "bbb"))) (re.++ (re.* (re.+ (str.to_re "c"))) (re.++ (re.* (re.+ (str.to_re "dd"))) (re.++ (re.+ (re.* (str.to_re "e"))) (re.++ (re.union (re.+ (str.to_re "fff")) (re.+ (str.to_re "ggg"))) (re.++ (re.* (re.union (str.to_re "h") (str.to_re "i"))) (re.++ (re.* (re.+ (str.to_re "jj"))) (re.++ (re.* (re.union (str.to_re "kk") (str.to_re "ll"))) (re.++ (re.* (re.+ (str.to_re "m"))) (re.++ (re.+ (re.+ (str.to_re "n"))) (re.++ (re.* (re.union (str.to_re "o") (str.to_re "pp"))) (re.++ (re.union (re.+ (str.to_re "q")) (re.+ (str.to_re "rr"))) (re.++ (re.union (re.* (str.to_re "s")) (re.* (str.to_re "tt"))) (re.++ (re.union (re.union (str.to_re "uuu") (str.to_re "v")) (re.union (str.to_re "www") (str.to_re "xxx"))) (re.++ (re.+ (re.+ (str.to_re "y"))) (re.++ (re.* (re.* (str.to_re "zz"))) (re.++ (re.union (re.+ (str.to_re "AA")) (re.+ (str.to_re "BBB"))) (re.++ (re.union (re.+ (str.to_re "CCC")) (re.+ (str.to_re "DD"))) (re.* (re.union (str.to_re "E") (str.to_re "FF")))))))))))))))))))))))))))))))
(check-sat)